(set-logic QF_BV)
(declare-fun _substvar_80_ () (_ BitVec 64))
(declare-fun _substvar_107_ () (_ BitVec 1))
(declare-fun _substvar_83_ () (_ BitVec 1))
(declare-fun _substvar_105_ () (_ BitVec 1))
(declare-fun _substvar_113_ () (_ BitVec 1))
(declare-fun _substvar_115_ () (_ BitVec 1))
(declare-fun _substvar_112_ () (_ BitVec 1))
(declare-fun _substvar_98_ () (_ BitVec 64))
(declare-fun _substvar_109_ () (_ BitVec 1))
(declare-fun _substvar_117_ () (_ BitVec 64))
(declare-fun _substvar_99_ () (_ BitVec 1))
(declare-fun _substvar_84_ () (_ BitVec 1))
(declare-fun _substvar_111_ () (_ BitVec 1))
(declare-fun _substvar_81_ () (_ BitVec 1))
(declare-fun _substvar_97_ () (_ BitVec 1))
(declare-fun _substvar_79_ () (_ BitVec 1))
(assert (= _substvar_117_ (bvsrem (_ bv0 64) _substvar_98_)))
(assert (= _substvar_80_ (bvsub (_ bv0 64) _substvar_117_)))
(assert (= (= _substvar_107_ (_ bv1 1)) (bvslt _substvar_80_ (_ bv0 64))))
(assert (= _substvar_115_ _substvar_107_))
(assert (= _substvar_111_ (bvand _substvar_84_ _substvar_115_)))
(assert (= _substvar_99_ (bvand _substvar_113_ _substvar_111_)))
(assert (= _substvar_109_ (bvand _substvar_99_ _substvar_105_)))
(assert (= _substvar_81_ (bvand _substvar_109_ _substvar_79_)))
(assert (= _substvar_83_ (bvand _substvar_81_ _substvar_97_)))
(assert (= (= _substvar_112_ (_ bv1 1)) (=> (= _substvar_83_ (_ bv1 1)) false)))
(assert (= (_ bv0 1) _substvar_112_))
(check-sat)
(exit)
